data/lp_files/q3/47_3.lp
\ Model foo
\ LP format - for model browsing. Use MPS format to capture full model detail.
Minimize
  z
Subject To
 allocateEach[1]: x[1,1] + x[2,1] + x[3,1] = 1
 allocateEach[2]: x[1,2] + x[2,2] + x[3,2] = 1
 allocateEach[3]: x[1,3] + x[2,3] + x[3,3] = 1
 allocateEach[4]: x[1,4] + x[2,4] + x[3,4] = 1
 allocateEach[5]: x[1,5] + x[2,5] + x[3,5] = 1
 allocateEach[6]: x[1,6] + x[2,6] + x[3,6] = 1
 allocateEach[7]: x[1,7] + x[2,7] + x[3,7] = 1
 allocateAllCash: cashProportion[1] + cashProportion[2] + cashProportion[3]
   = 1
 findWorstP[1,2]: z + 0.0626429041250352 cashProportion[1]
   - 0.0626429041250352 cashProportion[2] + 0.1962602186237354 x[1,1]
   + 0.0225201240329502 x[1,2] + 0.2572744072415197 x[1,3]
   + 0.0917092116390516 x[1,4] + 0.2428665392927616 x[1,5]
   + 0.1182071600839415 x[1,6] + 0.00851943496100479 x[1,7]
   - 0.1962602186237354 x[2,1] - 0.0225201240329502 x[2,2]
   - 0.2572744072415197 x[2,3] - 0.0917092116390516 x[2,4]
   - 0.2428665392927616 x[2,5] - 0.1182071600839415 x[2,6]
   - 0.00851943496100479 x[2,7] >= 0
 findWorstP[1,3]: z + 0.0626429041250352 cashProportion[1]
   - 0.0626429041250352 cashProportion[3] + 0.1962602186237354 x[1,1]
   + 0.0225201240329502 x[1,2] + 0.2572744072415197 x[1,3]
   + 0.0917092116390516 x[1,4] + 0.2428665392927616 x[1,5]
   + 0.1182071600839415 x[1,6] + 0.00851943496100479 x[1,7]
   - 0.1962602186237354 x[3,1] - 0.0225201240329502 x[3,2]
   - 0.2572744072415197 x[3,3] - 0.0917092116390516 x[3,4]
   - 0.2428665392927616 x[3,5] - 0.1182071600839415 x[3,6]
   - 0.00851943496100479 x[3,7] >= 0
 findWorstP[2,1]: z - 0.045445249835261 cashProportion[1]
   + 0.045445249835261 cashProportion[2] - 0.1554909223113454 x[1,1]
   - 0.2085482514940126 x[1,2] - 0.0886182371787589 x[1,3]
   - 0.1285873344088709 x[1,4] - 0.1143402485855166 x[1,5]
   - 0.0699402394964666 x[1,6] - 0.189029516689768 x[1,7]
   + 0.1554909223113454 x[2,1] + 0.2085482514940126 x[2,2]
   + 0.0886182371787589 x[2,3] + 0.1285873344088709 x[2,4]
   + 0.1143402485855166 x[2,5] + 0.0699402394964666 x[2,6]
   + 0.189029516689768 x[2,7] >= 0
 findWorstP[2,3]: z + 0.045445249835261 cashProportion[2]
   - 0.045445249835261 cashProportion[3] + 0.1554909223113454 x[2,1]
   + 0.2085482514940126 x[2,2] + 0.0886182371787589 x[2,3]
   + 0.1285873344088709 x[2,4] + 0.1143402485855166 x[2,5]
   + 0.0699402394964666 x[2,6] + 0.189029516689768 x[2,7]
   - 0.1554909223113454 x[3,1] - 0.2085482514940126 x[3,2]
   - 0.0886182371787589 x[3,3] - 0.1285873344088709 x[3,4]
   - 0.1143402485855166 x[3,5] - 0.0699402394964666 x[3,6]
   - 0.189029516689768 x[3,7] >= 0
 findWorstP[3,1]: z - 0.0444345700955343 cashProportion[1]
   + 0.0444345700955343 cashProportion[3] - 0.1634747833814708 x[1,1]
   - 0.1907353921350811 x[1,2] - 0.0654299044656743 x[1,3]
   - 0.1913352588313708 x[1,4] - 0.1808487002888247 x[1,5]
   - 0.0752277271717396 x[1,6] - 0.0885136636303044 x[1,7]
   + 0.1634747833814708 x[3,1] + 0.1907353921350811 x[3,2]
   + 0.0654299044656743 x[3,3] + 0.1913352588313708 x[3,4]
   + 0.1808487002888247 x[3,5] + 0.0752277271717396 x[3,6]
   + 0.0885136636303044 x[3,7] >= 0
 findWorstP[3,2]: z - 0.0444345700955343 cashProportion[2]
   + 0.0444345700955343 cashProportion[3] - 0.1634747833814708 x[2,1]
   - 0.1907353921350811 x[2,2] - 0.0654299044656743 x[2,3]
   - 0.1913352588313708 x[2,4] - 0.1808487002888247 x[2,5]
   - 0.0752277271717396 x[2,6] - 0.0885136636303044 x[2,7]
   + 0.1634747833814708 x[3,1] + 0.1907353921350811 x[3,2]
   + 0.0654299044656743 x[3,3] + 0.1913352588313708 x[3,4]
   + 0.1808487002888247 x[3,5] + 0.0752277271717396 x[3,6]
   + 0.0885136636303044 x[3,7] >= 0
Bounds
 z <= 1
 -infinity <= cashProportion[1] <= 1
 -infinity <= cashProportion[2] <= 1
 -infinity <= cashProportion[3] <= 1
Binaries
 x[1,1] x[1,2] x[1,3] x[1,4] x[1,5] x[1,6] x[1,7] x[2,1] x[2,2] x[2,3]
 x[2,4] x[2,5] x[2,6] x[2,7] x[3,1] x[3,2] x[3,3] x[3,4] x[3,5] x[3,6]
 x[3,7]
End
